Maximize

29.5 b0 + 33.0 b1 + 6 b2 + 10 b3 + 36.0 b4 + 6 b5 + 10 b6 + 54.5 b7 + 6 b8 + 10 b9 + 53.5 b10 + 36.0 b11 + 496.0 b12 + 82.5 b13 + 305.5 b14.v0 + 305.5 b14.v1 + 131.0 b15 + 37.0 b16.v0 + 35.0 b16.v1 + 6 b17 + 10 b18 + 82.5 b19 + 6 b20 + 10 b21 + 253.5 b22 + 63.0 b23 + 18.5 b24.v0 + 16.5 b24.v1 + 10 b25


Subject to

\ === tcfg constraints ===
dSta_0 = 1
b0 - dSta_0 = 0
b0 - d0_1 = 0
b1 - d0_1 = 0
b1 - d1_4 - d1_2 = 0
b2 - d1_2 = 0
b2 - d2_3 = 0
b3 - d2_3 = 0
b4 - d1_4 = 0
b4 - d4_7 - d4_5 = 0
b5 - d4_5 = 0
b5 - d5_6 = 0
b6 - d5_6 = 0
b7 - d4_7 = 0
b7 - d7_10 - d7_8 = 0
b8 - d7_8 = 0
b8 - d8_9 = 0
b9 - d8_9 = 0
b10 - d7_10 = 0
b10 - d10_19 - d10_11 = 0
b11 - d10_11 = 0
b11 - d11_12 = 0
b12 - d11_12 = 0
b12 - d12_14 - d12_13 = 0
b13 - d12_13 = 0
b13 - d13_14 = 0
b14 - d12_14 - d13_14 = 0
b14 - d14_16 - d14_15 = 0
b15 - d14_15 = 0
b15 - d15_16 = 0
b16 - d14_16 - d15_16 = 0
b16 - d16_17 = 0
b17 - d16_17 = 0
b17 - d17_18 = 0
b18 - d17_18 = 0
b19 - d10_19 = 0
b19 - d19_22 - d19_20 = 0
b20 - d19_20 = 0
b20 - d20_21 = 0
b21 - d20_21 = 0
b22 - d19_22 = 0
b22 - d22_24 - d22_23 = 0
b23 - d22_23 = 0
b23 - d23_24 = 0
b24 - d22_24 - d23_24 = 0
b24 - d24_25 = 0
b25 - d24_25 = 0


\ === header constraints ===



\ === context constraints ===
b14 - b14.v0 - b14.v1 = 0
b14.v0 - d12_14 = 0
b14.v1 - d13_14 = 0
b16 - b16.v0 - b16.v1 = 0
b16.v0 - d14_16 = 0
b16.v1 - d15_16 = 0
b24 - b24.v0 - b24.v1 = 0
b24.v0 - d22_24 = 0
b24.v1 - d23_24 = 0


\ === inst cache constraints ===



\ === data cache constraints ===



Generals


b0
b1
b2
b3
b4
b5
b6
b7
b8
b9
b10
b11
b12
b13
b14
b14.v0
b14.v1
b15
b16
b16.v0
b16.v1
b17
b18
b19
b20
b21
b22
b23
b24
b24.v0
b24.v1
b25
d0_1
d1_2
d1_4
d2_3
d4_5
d4_7
d5_6
d7_8
d7_10
d8_9
d10_11
d10_19
d11_12
d12_13
d12_14
d13_14
d14_15
d14_16
d15_16
d16_17
d17_18
d19_20
d19_22
d20_21
d22_23
d22_24
d23_24
d24_25
dSta_0


End
\ total cons: 65    total vars: 61
